Traveling Salesman Problem/TSP_generados/Aleatorio1620390877_6.tsp
NAME: Aleatorio1620390877_6.tsp
COMMENT: Randomly generated scenario
TYPE: TSP
DIMENSION: 6
EDGE_WEIGHT_TYPE: ATT
NODE_COORD_SECTION
1 10.62 25.29
2 2.6 6.71
3 0.8 24.67
4 44.47 44.96
5 35.43 16.36
6 20.16 5.32
