Traveling Salesman Problem/TSP_generados/Aleatorio1620390877_6.opt.tour
NAME: Aleatorio1620390877_6.opt.tour
COMMENT: Optimal solution for Aleatorio1620390877_6 (133.4921526674605)
TYPE: TOUR
DIMENSION: 6
TOUR_SECTION
1 3 2 6 5 4
-1
EOF
